(set-logic QF_S)
(set-option :strings-exp true)
(set-option :produce-models true)
(declare-fun sigmaStar_0 () String)
(declare-fun sigmaStar_1 () String)
(declare-fun sigmaStar_8 () String)
(declare-fun sigmaStar_9 () String)
(declare-fun x_10 () String)
(declare-fun x_11 () String)
(declare-fun literal_12 () String)
(declare-fun x_13 () String)
(assert (or (= x_10 sigmaStar_9) (= x_10 sigmaStar_8)))
(assert (= x_11 (str.++ sigmaStar_0 x_10)))
(assert (= literal_12 "\x3c\x62\x72\x3e\x5c\x6e"))
(assert (= x_13 (str.++ x_11 literal_12)))
(assert (str.in.re x_13 (re.++ (re.* re.allchar) (re.++ (str.to.re "\x5c\x3c\x53\x43\x52\x49\x50\x54") (re.* re.allchar)))))
(check-sat)
(get-model)
